p cnf 12 23
12 11 -10 0
12 11 -3 0
-12 10 -7 0
12 -9 -8 0
-12 -9 -3 0
12 6 -1 0
12 3 1 0
-11 -10 -7 0
-11 -10 -6 0
-11 -10 -5 0
11 -9 -7 0
-11 -9 -3 0
-11 -9 1 0
11 -4 -3 0
-10 9 -1 0
10 -7 -4 0
-10 7 -4 0
-10 7 3 0
9 8 1 0
9 -7 -5 0
9 -6 -5 0
7 -5 3 0
-6 5 3 0
